NAME : berlin52.9135.tour
COMMENT : Cost = 3070_9135
COMMENT : Found by LKH [Keld Helsgaun] Thu Nov 16 17:24:02 2017
TYPE : TOUR
DIMENSION : 54
TOUR_SECTION
1
31
21
42
7
2
30
29
47
26
16
50
20
23
54
22
18
17
3
45
19
41
8
9
10
33
43
4
6
15
5
24
38
40
39
36
35
49
32
53
34
37
48
25
12
51
11
52
14
13
27
28
46
44
-1
EOF
